w = 20;
n = 14;
measures = [|3, 3,
|3, 4,
|3, 5,
|3, 6,
|3, 7,
|3, 8,
|3, 9,
|3, 10,
|3, 11,
|3, 17,
|4, 3,
|4, 9,
|4, 11,
|4, 17,
|];
initial_x = [0, 3, 6, 9, 12, 15, 0, 3, 6, 9, 12, 16, 0, 4];
initial_y = [0, 0, 0, 0, 0, 0, 8, 8, 8, 8, 8, 8, 25, 25];